p edge	118	576
e	1	2
e	1	3
e	2	3
e	2	6
e	2	118
e	3	4
e	3	6
e	3	17
e	3	19
e	3	24
e	3	25
e	3	115
e	3	117
e	3	118
e	4	5
e	4	6
e	4	14
e	4	115
e	4	116
e	4	117
e	5	6
e	5	7
e	5	11
e	5	13
e	5	14
e	5	58
e	5	98
e	5	116
e	6	9
e	6	10
e	6	21
e	6	28
e	6	96
e	6	109
e	6	114
e	6	115
e	6	117
e	6	118
e	7	8
e	7	9
e	7	11
e	7	13
e	7	14
e	8	9
e	8	13
e	8	14
e	8	117
e	9	10
e	9	12
e	9	13
e	9	14
e	9	21
e	9	96
e	9	109
e	9	116
e	9	117
e	10	12
e	10	13
e	10	14
e	10	21
e	10	96
e	10	109
e	10	116
e	10	117
e	11	12
e	11	13
e	11	14
e	12	13
e	12	14
e	12	116
e	13	14
e	13	58
e	13	98
e	13	116
e	13	117
e	14	116
e	15	16
e	15	17
e	15	18
e	15	20
e	15	21
e	15	22
e	15	25
e	15	26
e	16	17
e	16	26
e	16	118
e	17	18
e	17	19
e	17	20
e	17	21
e	17	22
e	17	24
e	17	25
e	17	26
e	17	118
e	18	19
e	18	20
e	18	21
e	18	22
e	18	25
e	18	26
e	18	118
e	19	24
e	19	25
e	19	26
e	19	118
e	20	21
e	20	22
e	20	25
e	20	26
e	21	22
e	21	25
e	21	26
e	21	96
e	21	109
e	21	117
e	22	23
e	22	25
e	22	26
e	22	97
e	22	104
e	22	109
e	22	117
e	23	24
e	23	25
e	23	26
e	23	97
e	23	104
e	23	109
e	23	117
e	23	118
e	24	25
e	24	26
e	24	118
e	25	26
e	25	109
e	25	118
e	26	109
e	26	117
e	26	118
e	27	28
e	27	33
e	27	34
e	27	36
e	27	48
e	27	51
e	27	52
e	27	112
e	28	29
e	28	30
e	28	31
e	28	32
e	28	34
e	28	35
e	28	36
e	28	53
e	28	110
e	28	111
e	28	114
e	28	115
e	29	30
e	29	31
e	29	63
e	29	65
e	29	79
e	29	80
e	29	105
e	29	107
e	29	108
e	29	110
e	30	31
e	30	110
e	31	36
e	31	43
e	31	53
e	31	59
e	31	65
e	31	75
e	31	108
e	31	110
e	31	111
e	31	115
e	32	33
e	32	34
e	32	35
e	32	53
e	32	111
e	33	34
e	33	35
e	33	36
e	33	48
e	33	51
e	33	52
e	33	111
e	33	112
e	34	35
e	34	36
e	34	48
e	34	51
e	34	52
e	34	111
e	34	112
e	35	36
e	35	53
e	35	111
e	35	112
e	36	111
e	36	112
e	36	115
e	37	38
e	37	39
e	37	40
e	37	53
e	37	114
e	38	39
e	38	40
e	38	41
e	38	43
e	38	44
e	38	47
e	38	51
e	38	53
e	38	110
e	38	111
e	38	113
e	38	114
e	39	40
e	39	102
e	39	103
e	39	104
e	39	114
e	39	115
e	40	53
e	40	102
e	40	103
e	40	104
e	40	114
e	40	115
e	41	42
e	41	43
e	41	44
e	41	47
e	41	51
e	41	53
e	41	110
e	41	111
e	41	113
e	42	43
e	42	53
e	42	100
e	42	110
e	42	113
e	43	44
e	43	47
e	43	51
e	43	53
e	43	59
e	43	65
e	43	75
e	43	110
e	43	111
e	43	113
e	44	45
e	44	47
e	44	51
e	44	52
e	44	53
e	44	110
e	44	111
e	44	113
e	45	46
e	45	48
e	45	51
e	45	52
e	45	53
e	45	112
e	46	47
e	46	48
e	46	49
e	46	51
e	46	52
e	46	53
e	46	112
e	47	49
e	47	50
e	47	51
e	47	52
e	47	53
e	47	110
e	47	111
e	47	113
e	48	50
e	48	51
e	48	52
e	48	53
e	48	112
e	49	50
e	49	51
e	49	53
e	50	51
e	50	52
e	50	53
e	50	112
e	51	52
e	51	53
e	51	110
e	51	111
e	51	112
e	51	113
e	52	53
e	52	112
e	53	59
e	53	65
e	53	75
e	53	100
e	53	110
e	53	111
e	53	112
e	53	113
e	54	56
e	54	57
e	54	59
e	55	56
e	55	58
e	55	59
e	55	60
e	55	65
e	55	75
e	55	110
e	56	57
e	56	58
e	56	59
e	56	75
e	56	110
e	57	58
e	57	59
e	57	116
e	58	59
e	58	75
e	58	98
e	58	110
e	58	116
e	59	60
e	59	65
e	59	75
e	59	110
e	59	116
e	60	61
e	60	65
e	60	75
e	60	110
e	61	62
e	61	64
e	61	65
e	61	75
e	61	108
e	61	110
e	62	63
e	62	64
e	62	65
e	62	75
e	62	108
e	62	110
e	63	65
e	63	79
e	63	80
e	63	105
e	63	107
e	63	108
e	64	65
e	64	68
e	64	72
e	64	74
e	64	75
e	64	76
e	64	78
e	64	105
e	64	107
e	64	108
e	64	110
e	65	74
e	65	75
e	65	79
e	65	80
e	65	105
e	65	107
e	65	108
e	65	110
e	66	67
e	66	69
e	66	72
e	66	73
e	66	106
e	67	73
e	67	77
e	67	78
e	67	82
e	67	93
e	67	106
e	68	69
e	68	70
e	68	72
e	68	73
e	68	74
e	69	70
e	69	72
e	69	73
e	69	74
e	69	106
e	70	71
e	70	72
e	70	73
e	70	74
e	71	72
e	72	73
e	72	74
e	72	106
e	73	74
e	73	77
e	73	78
e	73	82
e	73	93
e	73	106
e	74	107
e	75	108
e	75	110
e	76	77
e	76	78
e	76	93
e	76	105
e	76	106
e	76	107
e	76	108
e	77	78
e	77	82
e	77	93
e	77	106
e	77	107
e	78	79
e	78	80
e	78	81
e	78	82
e	78	86
e	78	87
e	78	88
e	78	93
e	78	105
e	78	106
e	78	107
e	78	108
e	79	80
e	79	81
e	79	86
e	79	87
e	79	88
e	79	93
e	79	105
e	79	106
e	79	107
e	79	108
e	80	81
e	80	86
e	80	87
e	80	88
e	80	93
e	80	105
e	80	106
e	80	107
e	80	108
e	81	82
e	81	86
e	81	87
e	81	88
e	81	93
e	81	106
e	82	93
e	82	106
e	83	84
e	83	85
e	83	87
e	83	92
e	84	85
e	84	87
e	84	92
e	85	87
e	85	90
e	85	91
e	85	92
e	86	87
e	86	88
e	86	89
e	86	90
e	86	91
e	86	92
e	86	93
e	86	106
e	87	88
e	87	89
e	87	90
e	87	91
e	87	92
e	87	93
e	87	106
e	88	89
e	88	90
e	88	91
e	88	93
e	88	106
e	89	90
e	89	91
e	89	93
e	90	91
e	90	92
e	90	93
e	91	92
e	92	93
e	93	106
e	93	107
e	93	108
e	94	95
e	94	96
e	94	97
e	94	98
e	94	103
e	94	109
e	95	97
e	95	98
e	95	116
e	96	97
e	96	103
e	96	109
e	96	117
e	97	99
e	97	101
e	97	103
e	97	104
e	97	109
e	97	114
e	97	117
e	98	116
e	99	100
e	99	101
e	99	103
e	99	113
e	99	114
e	100	103
e	100	113
e	101	102
e	101	103
e	101	114
e	102	103
e	102	104
e	102	114
e	102	115
e	103	104
e	103	109
e	103	114
e	103	115
e	104	109
e	104	114
e	104	115
e	104	117
e	105	107
e	105	108
e	106	107
e	107	108
e	108	110
e	109	114
e	109	117
e	110	111
e	110	113
e	111	113
e	111	115
e	114	115
e	115	117
